0.750000 0.000000 1.000000
4
4 2 3 4 5 
5 6 7 8 9 10 
5 11 12 13 14 15 
5 16 17 18 19 20 
1 1 
1 1 
1 1 
1 1 
1 1 
1 1 
1 1 
1 1 
1 1 
1 1 
1 1 
1 1 
1 1 
1 2 
1 2 
1 2 
1 2 
1 2 
1 2 
1 2 
1 2 
1 2 
1 2 
1 2 
1 2 
1 3 
1 3 
1 3 
1 3 
1 3 
1 3 
1 3 
1 3 
1 3 
1 3 
1 3 
1 3 
1 4 
1 4 
1 4 
1 4 
1 4 
1 4 
1 4 
1 4 
1 4 
1 4 
1 4 
1 4 
1 5 
1 5 
1 5 
1 5 
1 5 
1 5 
1 5 
1 5 
1 5 
1 5 
1 5 
1 5 
1 1 
1 6 
1 6 
1 6 
1 6 
1 6 
1 6 
1 6 
1 6 
1 6 
1 6 
1 6 
1 6 
1 7 
1 7 
1 7 
1 7 
1 7 
1 7 
1 7 
1 7 
1 7 
2 7 5 
1 7 
2 7 5 
1 8 
1 8 
1 8 
1 8 
1 8 
2 8 2 
2 8 2 
1 8 
2 8 3 
1 8 
1 8 
3 8 2 3 
1 9 
1 9 
1 9 
1 9 
1 9 
1 9 
1 9 
1 9 
1 9 
1 9 
1 9 
1 9 
1 10 
1 10 
1 10 
1 10 
1 10 
1 10 
1 10 
1 10 
1 10 
1 10 
1 10 
1 10 
1 1 
1 11 
1 11 
1 11 
1 11 
1 11 
1 11 
1 11 
1 11 
1 11 
1 11 
1 11 
1 11 
1 12 
1 12 
1 12 
1 12 
2 12 6 
1 12 
2 12 6 
3 12 6 8 
1 12 
1 12 
1 12 
3 12 6 8 
1 13 
1 13 
1 13 
1 13 
1 13 
1 13 
1 13 
1 13 
1 13 
1 13 
1 13 
1 13 
1 14 
1 14 
1 14 
1 14 
1 14 
1 14 
3 14 12 6 
3 14 12 6 
3 14 12 6 
1 14 
1 14 
3 14 12 6 
1 15 
1 15 
1 15 
1 15 
1 15 
1 15 
1 15 
1 15 
1 15 
1 15 
1 15 
1 15 
1 1 
1 16 
2 16 4 
1 16 
1 16 
2 16 4 
1 16 
1 16 
2 16 4 
2 16 4 
1 16 
2 16 4 
2 16 4 
1 17 
1 17 
1 17 
1 17 
2 17 14 
1 17 
2 17 14 
2 17 14 
1 17 
2 17 9 
1 17 
3 17 9 14 
1 18 
1 18 
1 18 
1 18 
1 18 
3 18 11 15 
1 18 
1 18 
1 18 
1 18 
2 18 10 
4 18 10 11 15 
1 19 
1 19 
1 19 
1 19 
1 19 
2 19 13 
2 19 13 
1 19 
1 19 
1 19 
3 19 16 4 
4 19 13 16 4 
1 20 
1 20 
1 20 
1 20 
1 20 
2 20 18 
1 20 
1 20 
3 20 17 9 
1 20 
3 20 7 19 
6 20 7 17 9 18 19 
1 1 
